c 102_4_checker_5cl.cnf
c
c field = 102
c formula set type = 4_checker_5cl
c
p cnf 5 6
200 
204 
206 
208 
-198 
201 
205 
207 
209 
-199 
170 
234 
266 
298 
-138 
171 
235 
267 
299 
-139 
118 
146 
174 
230 
-258 
119 
147 
175 
231 
-259 
